proyfinal/src/viki/013/experimentInOfficeAgust.take6.output/cca24b82-7374-4a71-bcaf-61de7c2d6de8.als.dat
{'cnf.clauses': '118081',
 'cnf.totvars': '69608',
 'conflict literals': '41',
 'conflicts': '16',
 'decisions': '5920',
 'memused.mb': '15.36',
 'outcome': 'UNSAT',
 'propagations': '30081',
 'restarts': '1',
 'solver.msecs': 34,
 'task.msecs': 83}
