proyfinal/src/viki/013/experimentInOfficeAgust.take6.output/cca24b82-7374-4a71-bcaf-61de7c2d6de8.als.out
Reading from standard input... Use '--help' for help.
============================[ Problem Statistics ]=============================
|                                                                             |
|  Number of variables:         69608                                         |
|  Number of clauses:          118081                                         |
|  Parse time:                   0.03 s                                       |
|                                                                             |
============================[ Search Statistics ]==============================
| Conflicts |          ORIGINAL         |          LEARNT          | Progress |
|           |    Vars  Clauses Literals |    Limit  Clauses Lit/Cl |          |
===============================================================================
===============================================================================
restarts              : 1
conflicts             : 16             (458 /sec)
decisions             : 5920           (0.00 % random) (169356 /sec)
propagations          : 30081          (860539 /sec)
conflict literals     : 41             (0.00 % deleted)
Memory used           : 15.36 MB
CPU time              : 0.034956 s

UNSATISFIABLE
